1 98 81 13 63 28 67 91 94 69 42 46 86 95 68 74 27 66 52 92 32 14 64 39 93 100 5 72 73 38 97 31 29 15 25 80 30 70 88 99 36 60 18 19 76 50 6 12 55 17 90 89 20 3 23 35 43 61 53 78 41 47 49 58 79 26 9 82 48 45 51 71 40 62 21 85 11 77 59 75 96 22 87 4 2 8 34 57 84 7 44 10 24 16 37 33 54 56 83 65
